c *********************************
c * Circuit generated by BenCGen
c *
c * Parity_298
c *
c * Ports with 1 gate(s): 1
c * Ports with 2 gate(s): 298
c * Total gates: 299
c *********************************
p cnf 597 1193
1 301 0
-1 -301 0
1 -300 0
301 -300 0
-1 -301 300 0
1 2 -302 0
-1 2 302 0
1 -2 302 0
-1 -2 -302 0
3 4 -303 0
-3 4 303 0
3 -4 303 0
-3 -4 -303 0
5 6 -304 0
-5 6 304 0
5 -6 304 0
-5 -6 -304 0
7 8 -305 0
-7 8 305 0
7 -8 305 0
-7 -8 -305 0
9 10 -306 0
-9 10 306 0
9 -10 306 0
-9 -10 -306 0
11 12 -307 0
-11 12 307 0
11 -12 307 0
-11 -12 -307 0
13 14 -308 0
-13 14 308 0
13 -14 308 0
-13 -14 -308 0
15 16 -309 0
-15 16 309 0
15 -16 309 0
-15 -16 -309 0
17 18 -310 0
-17 18 310 0
17 -18 310 0
-17 -18 -310 0
19 20 -311 0
-19 20 311 0
19 -20 311 0
-19 -20 -311 0
21 22 -312 0
-21 22 312 0
21 -22 312 0
-21 -22 -312 0
23 24 -313 0
-23 24 313 0
23 -24 313 0
-23 -24 -313 0
25 26 -314 0
-25 26 314 0
25 -26 314 0
-25 -26 -314 0
27 28 -315 0
-27 28 315 0
27 -28 315 0
-27 -28 -315 0
29 30 -316 0
-29 30 316 0
29 -30 316 0
-29 -30 -316 0
31 32 -317 0
-31 32 317 0
31 -32 317 0
-31 -32 -317 0
33 34 -318 0
-33 34 318 0
33 -34 318 0
-33 -34 -318 0
35 36 -319 0
-35 36 319 0
35 -36 319 0
-35 -36 -319 0
37 38 -320 0
-37 38 320 0
37 -38 320 0
-37 -38 -320 0
39 40 -321 0
-39 40 321 0
39 -40 321 0
-39 -40 -321 0
41 42 -322 0
-41 42 322 0
41 -42 322 0
-41 -42 -322 0
43 44 -323 0
-43 44 323 0
43 -44 323 0
-43 -44 -323 0
45 46 -324 0
-45 46 324 0
45 -46 324 0
-45 -46 -324 0
47 48 -325 0
-47 48 325 0
47 -48 325 0
-47 -48 -325 0
49 50 -326 0
-49 50 326 0
49 -50 326 0
-49 -50 -326 0
51 52 -327 0
-51 52 327 0
51 -52 327 0
-51 -52 -327 0
53 54 -328 0
-53 54 328 0
53 -54 328 0
-53 -54 -328 0
55 56 -329 0
-55 56 329 0
55 -56 329 0
-55 -56 -329 0
57 58 -330 0
-57 58 330 0
57 -58 330 0
-57 -58 -330 0
59 60 -331 0
-59 60 331 0
59 -60 331 0
-59 -60 -331 0
61 62 -332 0
-61 62 332 0
61 -62 332 0
-61 -62 -332 0
63 64 -333 0
-63 64 333 0
63 -64 333 0
-63 -64 -333 0
65 66 -334 0
-65 66 334 0
65 -66 334 0
-65 -66 -334 0
67 68 -335 0
-67 68 335 0
67 -68 335 0
-67 -68 -335 0
69 70 -336 0
-69 70 336 0
69 -70 336 0
-69 -70 -336 0
71 72 -337 0
-71 72 337 0
71 -72 337 0
-71 -72 -337 0
73 74 -338 0
-73 74 338 0
73 -74 338 0
-73 -74 -338 0
75 76 -339 0
-75 76 339 0
75 -76 339 0
-75 -76 -339 0
77 78 -340 0
-77 78 340 0
77 -78 340 0
-77 -78 -340 0
79 80 -341 0
-79 80 341 0
79 -80 341 0
-79 -80 -341 0
81 82 -342 0
-81 82 342 0
81 -82 342 0
-81 -82 -342 0
83 84 -343 0
-83 84 343 0
83 -84 343 0
-83 -84 -343 0
85 86 -344 0
-85 86 344 0
85 -86 344 0
-85 -86 -344 0
87 88 -345 0
-87 88 345 0
87 -88 345 0
-87 -88 -345 0
89 90 -346 0
-89 90 346 0
89 -90 346 0
-89 -90 -346 0
91 92 -347 0
-91 92 347 0
91 -92 347 0
-91 -92 -347 0
93 94 -348 0
-93 94 348 0
93 -94 348 0
-93 -94 -348 0
95 96 -349 0
-95 96 349 0
95 -96 349 0
-95 -96 -349 0
97 98 -350 0
-97 98 350 0
97 -98 350 0
-97 -98 -350 0
99 100 -351 0
-99 100 351 0
99 -100 351 0
-99 -100 -351 0
101 102 -352 0
-101 102 352 0
101 -102 352 0
-101 -102 -352 0
103 104 -353 0
-103 104 353 0
103 -104 353 0
-103 -104 -353 0
105 106 -354 0
-105 106 354 0
105 -106 354 0
-105 -106 -354 0
107 108 -355 0
-107 108 355 0
107 -108 355 0
-107 -108 -355 0
109 110 -356 0
-109 110 356 0
109 -110 356 0
-109 -110 -356 0
111 112 -357 0
-111 112 357 0
111 -112 357 0
-111 -112 -357 0
113 114 -358 0
-113 114 358 0
113 -114 358 0
-113 -114 -358 0
115 116 -359 0
-115 116 359 0
115 -116 359 0
-115 -116 -359 0
117 118 -360 0
-117 118 360 0
117 -118 360 0
-117 -118 -360 0
119 120 -361 0
-119 120 361 0
119 -120 361 0
-119 -120 -361 0
121 122 -362 0
-121 122 362 0
121 -122 362 0
-121 -122 -362 0
123 124 -363 0
-123 124 363 0
123 -124 363 0
-123 -124 -363 0
125 126 -364 0
-125 126 364 0
125 -126 364 0
-125 -126 -364 0
127 128 -365 0
-127 128 365 0
127 -128 365 0
-127 -128 -365 0
129 130 -366 0
-129 130 366 0
129 -130 366 0
-129 -130 -366 0
131 132 -367 0
-131 132 367 0
131 -132 367 0
-131 -132 -367 0
133 134 -368 0
-133 134 368 0
133 -134 368 0
-133 -134 -368 0
135 136 -369 0
-135 136 369 0
135 -136 369 0
-135 -136 -369 0
137 138 -370 0
-137 138 370 0
137 -138 370 0
-137 -138 -370 0
139 140 -371 0
-139 140 371 0
139 -140 371 0
-139 -140 -371 0
141 142 -372 0
-141 142 372 0
141 -142 372 0
-141 -142 -372 0
143 144 -373 0
-143 144 373 0
143 -144 373 0
-143 -144 -373 0
145 146 -374 0
-145 146 374 0
145 -146 374 0
-145 -146 -374 0
147 148 -375 0
-147 148 375 0
147 -148 375 0
-147 -148 -375 0
149 150 -376 0
-149 150 376 0
149 -150 376 0
-149 -150 -376 0
151 152 -377 0
-151 152 377 0
151 -152 377 0
-151 -152 -377 0
153 154 -378 0
-153 154 378 0
153 -154 378 0
-153 -154 -378 0
155 156 -379 0
-155 156 379 0
155 -156 379 0
-155 -156 -379 0
157 158 -380 0
-157 158 380 0
157 -158 380 0
-157 -158 -380 0
159 160 -381 0
-159 160 381 0
159 -160 381 0
-159 -160 -381 0
161 162 -382 0
-161 162 382 0
161 -162 382 0
-161 -162 -382 0
163 164 -383 0
-163 164 383 0
163 -164 383 0
-163 -164 -383 0
165 166 -384 0
-165 166 384 0
165 -166 384 0
-165 -166 -384 0
167 168 -385 0
-167 168 385 0
167 -168 385 0
-167 -168 -385 0
169 170 -386 0
-169 170 386 0
169 -170 386 0
-169 -170 -386 0
171 172 -387 0
-171 172 387 0
171 -172 387 0
-171 -172 -387 0
173 174 -388 0
-173 174 388 0
173 -174 388 0
-173 -174 -388 0
175 176 -389 0
-175 176 389 0
175 -176 389 0
-175 -176 -389 0
177 178 -390 0
-177 178 390 0
177 -178 390 0
-177 -178 -390 0
179 180 -391 0
-179 180 391 0
179 -180 391 0
-179 -180 -391 0
181 182 -392 0
-181 182 392 0
181 -182 392 0
-181 -182 -392 0
183 184 -393 0
-183 184 393 0
183 -184 393 0
-183 -184 -393 0
185 186 -394 0
-185 186 394 0
185 -186 394 0
-185 -186 -394 0
187 188 -395 0
-187 188 395 0
187 -188 395 0
-187 -188 -395 0
189 190 -396 0
-189 190 396 0
189 -190 396 0
-189 -190 -396 0
191 192 -397 0
-191 192 397 0
191 -192 397 0
-191 -192 -397 0
193 194 -398 0
-193 194 398 0
193 -194 398 0
-193 -194 -398 0
195 196 -399 0
-195 196 399 0
195 -196 399 0
-195 -196 -399 0
197 198 -400 0
-197 198 400 0
197 -198 400 0
-197 -198 -400 0
199 200 -401 0
-199 200 401 0
199 -200 401 0
-199 -200 -401 0
201 202 -402 0
-201 202 402 0
201 -202 402 0
-201 -202 -402 0
203 204 -403 0
-203 204 403 0
203 -204 403 0
-203 -204 -403 0
205 206 -404 0
-205 206 404 0
205 -206 404 0
-205 -206 -404 0
207 208 -405 0
-207 208 405 0
207 -208 405 0
-207 -208 -405 0
209 210 -406 0
-209 210 406 0
209 -210 406 0
-209 -210 -406 0
211 212 -407 0
-211 212 407 0
211 -212 407 0
-211 -212 -407 0
213 214 -408 0
-213 214 408 0
213 -214 408 0
-213 -214 -408 0
215 216 -409 0
-215 216 409 0
215 -216 409 0
-215 -216 -409 0
217 218 -410 0
-217 218 410 0
217 -218 410 0
-217 -218 -410 0
219 220 -411 0
-219 220 411 0
219 -220 411 0
-219 -220 -411 0
221 222 -412 0
-221 222 412 0
221 -222 412 0
-221 -222 -412 0
223 224 -413 0
-223 224 413 0
223 -224 413 0
-223 -224 -413 0
225 226 -414 0
-225 226 414 0
225 -226 414 0
-225 -226 -414 0
227 228 -415 0
-227 228 415 0
227 -228 415 0
-227 -228 -415 0
229 230 -416 0
-229 230 416 0
229 -230 416 0
-229 -230 -416 0
231 232 -417 0
-231 232 417 0
231 -232 417 0
-231 -232 -417 0
233 234 -418 0
-233 234 418 0
233 -234 418 0
-233 -234 -418 0
235 236 -419 0
-235 236 419 0
235 -236 419 0
-235 -236 -419 0
237 238 -420 0
-237 238 420 0
237 -238 420 0
-237 -238 -420 0
239 240 -421 0
-239 240 421 0
239 -240 421 0
-239 -240 -421 0
241 242 -422 0
-241 242 422 0
241 -242 422 0
-241 -242 -422 0
243 244 -423 0
-243 244 423 0
243 -244 423 0
-243 -244 -423 0
245 246 -424 0
-245 246 424 0
245 -246 424 0
-245 -246 -424 0
247 248 -425 0
-247 248 425 0
247 -248 425 0
-247 -248 -425 0
249 250 -426 0
-249 250 426 0
249 -250 426 0
-249 -250 -426 0
251 252 -427 0
-251 252 427 0
251 -252 427 0
-251 -252 -427 0
253 254 -428 0
-253 254 428 0
253 -254 428 0
-253 -254 -428 0
255 256 -429 0
-255 256 429 0
255 -256 429 0
-255 -256 -429 0
257 258 -430 0
-257 258 430 0
257 -258 430 0
-257 -258 -430 0
259 260 -431 0
-259 260 431 0
259 -260 431 0
-259 -260 -431 0
261 262 -432 0
-261 262 432 0
261 -262 432 0
-261 -262 -432 0
263 264 -433 0
-263 264 433 0
263 -264 433 0
-263 -264 -433 0
265 266 -434 0
-265 266 434 0
265 -266 434 0
-265 -266 -434 0
267 268 -435 0
-267 268 435 0
267 -268 435 0
-267 -268 -435 0
269 270 -436 0
-269 270 436 0
269 -270 436 0
-269 -270 -436 0
271 272 -437 0
-271 272 437 0
271 -272 437 0
-271 -272 -437 0
273 274 -438 0
-273 274 438 0
273 -274 438 0
-273 -274 -438 0
275 276 -439 0
-275 276 439 0
275 -276 439 0
-275 -276 -439 0
277 278 -440 0
-277 278 440 0
277 -278 440 0
-277 -278 -440 0
279 280 -441 0
-279 280 441 0
279 -280 441 0
-279 -280 -441 0
281 282 -442 0
-281 282 442 0
281 -282 442 0
-281 -282 -442 0
283 284 -443 0
-283 284 443 0
283 -284 443 0
-283 -284 -443 0
285 286 -444 0
-285 286 444 0
285 -286 444 0
-285 -286 -444 0
287 288 -445 0
-287 288 445 0
287 -288 445 0
-287 -288 -445 0
289 290 -446 0
-289 290 446 0
289 -290 446 0
-289 -290 -446 0
291 292 -447 0
-291 292 447 0
291 -292 447 0
-291 -292 -447 0
293 294 -448 0
-293 294 448 0
293 -294 448 0
-293 -294 -448 0
295 296 -449 0
-295 296 449 0
295 -296 449 0
-295 -296 -449 0
297 298 -450 0
-297 298 450 0
297 -298 450 0
-297 -298 -450 0
302 303 -451 0
-302 303 451 0
302 -303 451 0
-302 -303 -451 0
304 305 -452 0
-304 305 452 0
304 -305 452 0
-304 -305 -452 0
306 307 -453 0
-306 307 453 0
306 -307 453 0
-306 -307 -453 0
308 309 -454 0
-308 309 454 0
308 -309 454 0
-308 -309 -454 0
310 311 -455 0
-310 311 455 0
310 -311 455 0
-310 -311 -455 0
312 313 -456 0
-312 313 456 0
312 -313 456 0
-312 -313 -456 0
314 315 -457 0
-314 315 457 0
314 -315 457 0
-314 -315 -457 0
316 317 -458 0
-316 317 458 0
316 -317 458 0
-316 -317 -458 0
318 319 -459 0
-318 319 459 0
318 -319 459 0
-318 -319 -459 0
320 321 -460 0
-320 321 460 0
320 -321 460 0
-320 -321 -460 0
322 323 -461 0
-322 323 461 0
322 -323 461 0
-322 -323 -461 0
324 325 -462 0
-324 325 462 0
324 -325 462 0
-324 -325 -462 0
326 327 -463 0
-326 327 463 0
326 -327 463 0
-326 -327 -463 0
328 329 -464 0
-328 329 464 0
328 -329 464 0
-328 -329 -464 0
330 331 -465 0
-330 331 465 0
330 -331 465 0
-330 -331 -465 0
332 333 -466 0
-332 333 466 0
332 -333 466 0
-332 -333 -466 0
334 335 -467 0
-334 335 467 0
334 -335 467 0
-334 -335 -467 0
336 337 -468 0
-336 337 468 0
336 -337 468 0
-336 -337 -468 0
338 339 -469 0
-338 339 469 0
338 -339 469 0
-338 -339 -469 0
340 341 -470 0
-340 341 470 0
340 -341 470 0
-340 -341 -470 0
342 343 -471 0
-342 343 471 0
342 -343 471 0
-342 -343 -471 0
344 345 -472 0
-344 345 472 0
344 -345 472 0
-344 -345 -472 0
346 347 -473 0
-346 347 473 0
346 -347 473 0
-346 -347 -473 0
348 349 -474 0
-348 349 474 0
348 -349 474 0
-348 -349 -474 0
350 351 -475 0
-350 351 475 0
350 -351 475 0
-350 -351 -475 0
352 353 -476 0
-352 353 476 0
352 -353 476 0
-352 -353 -476 0
354 355 -477 0
-354 355 477 0
354 -355 477 0
-354 -355 -477 0
356 357 -478 0
-356 357 478 0
356 -357 478 0
-356 -357 -478 0
358 359 -479 0
-358 359 479 0
358 -359 479 0
-358 -359 -479 0
360 361 -480 0
-360 361 480 0
360 -361 480 0
-360 -361 -480 0
362 363 -481 0
-362 363 481 0
362 -363 481 0
-362 -363 -481 0
364 365 -482 0
-364 365 482 0
364 -365 482 0
-364 -365 -482 0
366 367 -483 0
-366 367 483 0
366 -367 483 0
-366 -367 -483 0
368 369 -484 0
-368 369 484 0
368 -369 484 0
-368 -369 -484 0
370 371 -485 0
-370 371 485 0
370 -371 485 0
-370 -371 -485 0
372 373 -486 0
-372 373 486 0
372 -373 486 0
-372 -373 -486 0
374 375 -487 0
-374 375 487 0
374 -375 487 0
-374 -375 -487 0
376 377 -488 0
-376 377 488 0
376 -377 488 0
-376 -377 -488 0
378 379 -489 0
-378 379 489 0
378 -379 489 0
-378 -379 -489 0
380 381 -490 0
-380 381 490 0
380 -381 490 0
-380 -381 -490 0
382 383 -491 0
-382 383 491 0
382 -383 491 0
-382 -383 -491 0
384 385 -492 0
-384 385 492 0
384 -385 492 0
-384 -385 -492 0
386 387 -493 0
-386 387 493 0
386 -387 493 0
-386 -387 -493 0
388 389 -494 0
-388 389 494 0
388 -389 494 0
-388 -389 -494 0
390 391 -495 0
-390 391 495 0
390 -391 495 0
-390 -391 -495 0
392 393 -496 0
-392 393 496 0
392 -393 496 0
-392 -393 -496 0
394 395 -497 0
-394 395 497 0
394 -395 497 0
-394 -395 -497 0
396 397 -498 0
-396 397 498 0
396 -397 498 0
-396 -397 -498 0
398 399 -499 0
-398 399 499 0
398 -399 499 0
-398 -399 -499 0
400 401 -500 0
-400 401 500 0
400 -401 500 0
-400 -401 -500 0
402 403 -501 0
-402 403 501 0
402 -403 501 0
-402 -403 -501 0
404 405 -502 0
-404 405 502 0
404 -405 502 0
-404 -405 -502 0
406 407 -503 0
-406 407 503 0
406 -407 503 0
-406 -407 -503 0
408 409 -504 0
-408 409 504 0
408 -409 504 0
-408 -409 -504 0
410 411 -505 0
-410 411 505 0
410 -411 505 0
-410 -411 -505 0
412 413 -506 0
-412 413 506 0
412 -413 506 0
-412 -413 -506 0
414 415 -507 0
-414 415 507 0
414 -415 507 0
-414 -415 -507 0
416 417 -508 0
-416 417 508 0
416 -417 508 0
-416 -417 -508 0
418 419 -509 0
-418 419 509 0
418 -419 509 0
-418 -419 -509 0
420 421 -510 0
-420 421 510 0
420 -421 510 0
-420 -421 -510 0
422 423 -511 0
-422 423 511 0
422 -423 511 0
-422 -423 -511 0
424 425 -512 0
-424 425 512 0
424 -425 512 0
-424 -425 -512 0
426 427 -513 0
-426 427 513 0
426 -427 513 0
-426 -427 -513 0
428 429 -514 0
-428 429 514 0
428 -429 514 0
-428 -429 -514 0
430 431 -515 0
-430 431 515 0
430 -431 515 0
-430 -431 -515 0
432 433 -516 0
-432 433 516 0
432 -433 516 0
-432 -433 -516 0
434 435 -517 0
-434 435 517 0
434 -435 517 0
-434 -435 -517 0
436 437 -518 0
-436 437 518 0
436 -437 518 0
-436 -437 -518 0
438 439 -519 0
-438 439 519 0
438 -439 519 0
-438 -439 -519 0
440 441 -520 0
-440 441 520 0
440 -441 520 0
-440 -441 -520 0
442 443 -521 0
-442 443 521 0
442 -443 521 0
-442 -443 -521 0
444 445 -522 0
-444 445 522 0
444 -445 522 0
-444 -445 -522 0
446 447 -523 0
-446 447 523 0
446 -447 523 0
-446 -447 -523 0
448 449 -524 0
-448 449 524 0
448 -449 524 0
-448 -449 -524 0
451 452 -525 0
-451 452 525 0
451 -452 525 0
-451 -452 -525 0
453 454 -526 0
-453 454 526 0
453 -454 526 0
-453 -454 -526 0
455 456 -527 0
-455 456 527 0
455 -456 527 0
-455 -456 -527 0
457 458 -528 0
-457 458 528 0
457 -458 528 0
-457 -458 -528 0
459 460 -529 0
-459 460 529 0
459 -460 529 0
-459 -460 -529 0
461 462 -530 0
-461 462 530 0
461 -462 530 0
-461 -462 -530 0
463 464 -531 0
-463 464 531 0
463 -464 531 0
-463 -464 -531 0
465 466 -532 0
-465 466 532 0
465 -466 532 0
-465 -466 -532 0
467 468 -533 0
-467 468 533 0
467 -468 533 0
-467 -468 -533 0
469 470 -534 0
-469 470 534 0
469 -470 534 0
-469 -470 -534 0
471 472 -535 0
-471 472 535 0
471 -472 535 0
-471 -472 -535 0
473 474 -536 0
-473 474 536 0
473 -474 536 0
-473 -474 -536 0
475 476 -537 0
-475 476 537 0
475 -476 537 0
-475 -476 -537 0
477 478 -538 0
-477 478 538 0
477 -478 538 0
-477 -478 -538 0
479 480 -539 0
-479 480 539 0
479 -480 539 0
-479 -480 -539 0
481 482 -540 0
-481 482 540 0
481 -482 540 0
-481 -482 -540 0
483 484 -541 0
-483 484 541 0
483 -484 541 0
-483 -484 -541 0
485 486 -542 0
-485 486 542 0
485 -486 542 0
-485 -486 -542 0
487 488 -543 0
-487 488 543 0
487 -488 543 0
-487 -488 -543 0
489 490 -544 0
-489 490 544 0
489 -490 544 0
-489 -490 -544 0
491 492 -545 0
-491 492 545 0
491 -492 545 0
-491 -492 -545 0
493 494 -546 0
-493 494 546 0
493 -494 546 0
-493 -494 -546 0
495 496 -547 0
-495 496 547 0
495 -496 547 0
-495 -496 -547 0
497 498 -548 0
-497 498 548 0
497 -498 548 0
-497 -498 -548 0
499 500 -549 0
-499 500 549 0
499 -500 549 0
-499 -500 -549 0
501 502 -550 0
-501 502 550 0
501 -502 550 0
-501 -502 -550 0
503 504 -551 0
-503 504 551 0
503 -504 551 0
-503 -504 -551 0
505 506 -552 0
-505 506 552 0
505 -506 552 0
-505 -506 -552 0
507 508 -553 0
-507 508 553 0
507 -508 553 0
-507 -508 -553 0
509 510 -554 0
-509 510 554 0
509 -510 554 0
-509 -510 -554 0
511 512 -555 0
-511 512 555 0
511 -512 555 0
-511 -512 -555 0
513 514 -556 0
-513 514 556 0
513 -514 556 0
-513 -514 -556 0
515 516 -557 0
-515 516 557 0
515 -516 557 0
-515 -516 -557 0
517 518 -558 0
-517 518 558 0
517 -518 558 0
-517 -518 -558 0
519 520 -559 0
-519 520 559 0
519 -520 559 0
-519 -520 -559 0
521 522 -560 0
-521 522 560 0
521 -522 560 0
-521 -522 -560 0
523 524 -561 0
-523 524 561 0
523 -524 561 0
-523 -524 -561 0
525 526 -562 0
-525 526 562 0
525 -526 562 0
-525 -526 -562 0
527 528 -563 0
-527 528 563 0
527 -528 563 0
-527 -528 -563 0
529 530 -564 0
-529 530 564 0
529 -530 564 0
-529 -530 -564 0
531 532 -565 0
-531 532 565 0
531 -532 565 0
-531 -532 -565 0
533 534 -566 0
-533 534 566 0
533 -534 566 0
-533 -534 -566 0
535 536 -567 0
-535 536 567 0
535 -536 567 0
-535 -536 -567 0
537 538 -568 0
-537 538 568 0
537 -538 568 0
-537 -538 -568 0
539 540 -569 0
-539 540 569 0
539 -540 569 0
-539 -540 -569 0
541 542 -570 0
-541 542 570 0
541 -542 570 0
-541 -542 -570 0
543 544 -571 0
-543 544 571 0
543 -544 571 0
-543 -544 -571 0
545 546 -572 0
-545 546 572 0
545 -546 572 0
-545 -546 -572 0
547 548 -573 0
-547 548 573 0
547 -548 573 0
-547 -548 -573 0
549 550 -574 0
-549 550 574 0
549 -550 574 0
-549 -550 -574 0
551 552 -575 0
-551 552 575 0
551 -552 575 0
-551 -552 -575 0
553 554 -576 0
-553 554 576 0
553 -554 576 0
-553 -554 -576 0
555 556 -577 0
-555 556 577 0
555 -556 577 0
-555 -556 -577 0
557 558 -578 0
-557 558 578 0
557 -558 578 0
-557 -558 -578 0
559 560 -579 0
-559 560 579 0
559 -560 579 0
-559 -560 -579 0
561 450 -580 0
-561 450 580 0
561 -450 580 0
-561 -450 -580 0
562 563 -581 0
-562 563 581 0
562 -563 581 0
-562 -563 -581 0
564 565 -582 0
-564 565 582 0
564 -565 582 0
-564 -565 -582 0
566 567 -583 0
-566 567 583 0
566 -567 583 0
-566 -567 -583 0
568 569 -584 0
-568 569 584 0
568 -569 584 0
-568 -569 -584 0
570 571 -585 0
-570 571 585 0
570 -571 585 0
-570 -571 -585 0
572 573 -586 0
-572 573 586 0
572 -573 586 0
-572 -573 -586 0
574 575 -587 0
-574 575 587 0
574 -575 587 0
-574 -575 -587 0
576 577 -588 0
-576 577 588 0
576 -577 588 0
-576 -577 -588 0
578 579 -589 0
-578 579 589 0
578 -579 589 0
-578 -579 -589 0
581 582 -590 0
-581 582 590 0
581 -582 590 0
-581 -582 -590 0
583 584 -591 0
-583 584 591 0
583 -584 591 0
-583 -584 -591 0
585 586 -592 0
-585 586 592 0
585 -586 592 0
-585 -586 -592 0
587 588 -593 0
-587 588 593 0
587 -588 593 0
-587 -588 -593 0
589 580 -594 0
-589 580 594 0
589 -580 594 0
-589 -580 -594 0
590 591 -595 0
-590 591 595 0
590 -591 595 0
-590 -591 -595 0
592 593 -596 0
-592 593 596 0
592 -593 596 0
-592 -593 -596 0
595 596 -597 0
-595 596 597 0
595 -596 597 0
-595 -596 -597 0
597 594 -299 0
-597 594 299 0
597 -594 299 0
-597 -594 -299 0
